%%% static parameters %%%
timespan = 1;
initial_fruit_bushes = [40];
initial_foragers = [40];
ticks_to_flee = [100];
bush_growth_chance = [10];
rate_of_mutation = [5.0];
%%% dynamic parameters %%%
mean_strength_th = 0.2637320256036738;
mean_strength_w = 64;
mean_speed_th = 0.9992350364335141;
mean_speed_w = 41;
mean_intelligence_th = 0.10427568256578801;
mean_intelligence_w = 54;
murder_rate_th = 0.7917101474135274;
murder_rate_w = 7;
age_death_rate_th = 0.5555504101866005;
age_death_rate_w = 95;
starvation_rate_th = 0.9921032587828036;
starvation_rate_w = 95;
mean_reactive_aggression_th = 0.9905086448661164;
mean_reactive_aggression_w = 45;
mean_proactive_aggression_th = 0.6916378930938204;
mean_proactive_aggression_w = 52;
